38 5
21 33 16 14 18 22 30 7 0 9 17 5 4 13 32 12 6 0 31 2 20 19 8 15 0 23 26 35 27 37 3 25 0 28 38 29 11 24 36 34 10 

1234

Route #1: 21 33 16 14 18 22 30 7 
Route #2: 9 17 5 4 13 32 12 6 
Route #3: 31 2 20 19 8 15 
Route #4: 23 26 35 27 37 3 25 
Route #5: 28 38 29 11 24 36 34 10 